K-Points for bandstructure G-X-M-R-M
   20
Line-Mode
Reciprocal
   0.0000000000   0.0000000000   0.0000000000     G
   0.0000000000   0.5000000000   0.0000000000     X

   0.0000000000   0.5000000000   0.0000000000     x
   0.5000000000   0.5000000000   0.0000000000     M

   0.5000000000   0.5000000000   0.0000000000     M
   0.5000000000   0.5000000000   0.5000000000     R

   0.5000000000   0.5000000000   0.5000000000     R
   0.0000000000   0.0000000000   0.0000000000     G

   0.0000000000   0.0000000000   0.0000000000     G
   0.5000000000   0.5000000000   0.0000000000     M
