Mn4 Te4                                 
   1.00000000000000     
     6.1608984363759367   -0.0000000000000000    0.0000000000000004
     0.0000000000000009    6.3160083883596609    0.0000000000000004
    -0.0000000000000000   -0.0000000000000000    6.3160083883596609
   Mn   Te
     4     4
Direct
 -0.0000000000000000  0.0000000000000000 -0.0000000000000000
 -0.0000000000000000  0.5000000000000000  0.5000000000000000
  0.5000000000000000  0.0000000000000000  0.5000000000000000
  0.5000000000000000  0.5000000000000000  0.0000000000000000
  0.7499999154776950  0.2500000000000000  0.7500000000000000
  0.7499999154776950  0.7500000000000000  0.2500000000000000
  0.2500000845223050  0.2500000000000000  0.2500000000000000
  0.2500000845223050  0.7500000000000000  0.7500000000000000
 
  0.00000000E+00  0.00000000E+00  0.00000000E+00
  0.00000000E+00  0.00000000E+00  0.00000000E+00
  0.00000000E+00  0.00000000E+00  0.00000000E+00
  0.00000000E+00  0.00000000E+00  0.00000000E+00
  0.00000000E+00  0.00000000E+00  0.00000000E+00
  0.00000000E+00  0.00000000E+00  0.00000000E+00
  0.00000000E+00  0.00000000E+00  0.00000000E+00
  0.00000000E+00  0.00000000E+00  0.00000000E+00
