Mn4 Te4
1.0
   6.3799403400000001    0.0000000000000000    0.0000000000000004
   0.0000000000000010    6.3799403400000001    0.0000000000000004
   0.0000000000000000    0.0000000000000000    6.3799403400000001
Mn Te
4 4
direct
   0.0000000000000000    0.0000000000000000    0.0000000000000000 Mn2+
   0.0000000000000000    0.5000000000000000    0.5000000000000000 Mn2+
   0.5000000000000000    0.0000000000000000    0.5000000000000000 Mn2+
   0.5000000000000000    0.5000000000000000    0.0000000000000000 Mn2+
   0.7500000000000000    0.2500000000000000    0.7500000000000000 Te2-
   0.7500000000000000    0.7500000000000000    0.2500000000000000 Te2-
   0.2500000000000000    0.2500000000000000    0.2500000000000000 Te2-
   0.2500000000000000    0.7500000000000000    0.7500000000000000 Te2-
