ISPIN=2
LORBIT=11
MAGMOM=4*3.0 4*-3.0
ENCUT=700
EDIFF=1.0E-7
NELM=100
ISMEAR=0
SIGMA=0.02
NPAR=8
GGA=PE
